data;


param d:= 100;
param r:=5;
param p:=0.740000;
param M:=1000;
param U:=
         1         1        8.083463e-01
         2         1        1.067916e+00
         3         1       -3.976916e-01
         4         1        7.310320e-01
         5         1       -1.636326e+00
         6         1        1.423496e+00
         7         1       -6.877544e-01
         8         1       -1.235020e+00
         9         1        9.965006e-01
        10         1        7.392253e-01
        11         1       -5.649556e-01
        12         1       -2.047444e-01
        13         1       -1.116427e+00
        14         1        1.054676e+00
        15         1        8.814107e-01
        16         1       -1.864764e+00
        17         1       -3.721140e-01
        18         1        9.993500e-01
        19         1       -1.502477e-01
        20         1       -1.895858e-01
        21         1       -3.156377e-01
        22         1        7.191578e-01
        23         1        1.008686e+00
        24         1        5.884097e-01
        25         1        8.100102e-01
        26         1       -6.158987e-02
        27         1        7.619750e-01
        28         1        8.033197e-01
        29         1       -3.248639e-01
        30         1        6.080406e-01
        31         1        2.863707e-02
        32         1        3.111021e-01
        33         1       -3.312519e-01
        34         1       -7.988385e-01
        35         1       -2.525843e-01
        36         1       -3.148415e-01
        37         1        7.697476e-01
        38         1        1.487237e-01
        39         1       -1.888060e-01
        40         1        1.786135e+00
        41         1        2.096656e-01
        42         1       -5.907845e-01
        43         1       -5.246608e-01
        44         1        3.935555e-01
        45         1       -1.626323e+00
        46         1        1.886419e-01
        47         1       -6.422182e-01
        48         1        1.735626e+00
        49         1       -1.487697e+00
        50         1       -1.516635e+00
        51         1        6.897007e-01
        52         1        1.557054e+00
        53         1        7.786607e-01
        54         1       -1.139398e+00
        55         1       -7.581351e-01
        56         1       -5.543018e-01
        57         1       -1.407059e+00
        58         1        2.957624e-01
        59         1       -4.453159e-01
        60         1        5.490534e-01
        61         1       -7.847277e-01
        62         1       -1.955720e+00
        63         1       -4.071736e-01
        64         1       -1.531176e+00
        65         1        8.094108e-01
        66         1        1.040217e+00
        67         1        1.034048e+00
        68         1        1.833173e+00
        69         1       -4.943923e-01
        70         1       -1.236233e+00
        71         1        1.723446e+00
        72         1       -6.139038e-01
        73         1        2.028143e+00
        74         1        9.914006e-01
        75         1        9.991289e-01
        76         1       -1.278523e+00
        77         1       -8.877003e-01
        78         1        6.445102e-01
        79         1        9.012726e-01
        80         1        8.641492e-01
        81         1       -1.524177e+00
        82         1        5.450932e-01
        83         1        2.293570e+00
        84         1       -2.282832e-01
        85         1        2.565305e-01
        86         1       -7.809561e-01
        87         1       -5.257994e-01
        88         1       -7.806585e-01
        89         1        2.519543e-01
        90         1        2.998660e-01
        91         1        7.168033e-01
        92         1       -3.386400e-01
        93         1       -2.353038e+00
        94         1       -7.469675e-01
        95         1        8.543045e-01
        96         1       -1.482473e+00
        97         1       -1.099670e+00
        98         1       -1.027865e+00
        99         1        8.399954e-01
       100         1        6.096062e-01
         1         2        1.272783e+00
         2         2        6.319429e-01
         3         2        8.963156e-01
         4         2       -6.072476e-01
         5         2        1.282192e+00
         6         2       -1.836727e+00
         7         2        2.360027e-01
         8         2       -1.433896e+00
         9         2       -3.207014e-01
        10         2        6.361805e-01
        11         2        9.464578e-01
        12         2       -5.180348e-01
        13         2        9.045394e-01
        14         2       -8.966929e-01
        15         2        4.234144e-01
        16         2       -1.567552e+00
        17         2        1.381059e-01
        18         2        2.160386e+00
        19         2        7.839184e-02
        20         2       -4.176930e-01
        21         2       -3.354051e-01
        22         2        1.579532e+00
        23         2        2.690645e-02
        24         2       -1.149912e+00
        25         2        6.671424e-01
        26         2       -7.567955e-01
        27         2       -1.085346e+00
        28         2        2.304020e+00
        29         2        5.534545e-01
        30         2       -4.598696e-01
        31         2       -1.908225e+00
        32         2       -7.724255e-01
        33         2        1.077548e-01
        34         2       -8.397101e-02
        35         2        1.209002e+00
        36         2       -2.390800e+00
        37         2       -4.367452e-01
        38         2        1.333144e+00
        39         2        1.431834e+00
        40         2       -1.410528e+00
        41         2        8.419167e-02
        42         2       -1.250985e+00
        43         2        1.346689e-01
        44         2       -4.727195e-01
        45         2       -1.666592e-02
        46         2        6.318997e-01
        47         2       -1.036475e+00
        48         2        5.999179e-01
        49         2        9.110306e-01
        50         2       -5.268956e-01
        51         2        6.076720e-01
        52         2       -4.517874e-01
        53         2        1.721707e-01
        54         2       -9.923253e-01
        55         2        7.082256e-01
        56         2       -1.389628e+00
        57         2       -7.891280e-01
        58         2       -1.799610e+00
        59         2        8.765015e-02
        60         2       -3.355434e-01
        61         2        1.914129e+00
        62         2       -4.857111e-01
        63         2       -3.698414e-01
        64         2       -1.135245e+00
        65         2        1.136836e+00
        66         2       -2.265392e+00
        67         2       -5.886213e-01
        68         2       -5.947462e-01
        69         2        5.956982e-01
        70         2        1.158133e+00
        71         2       -2.739928e-01
        72         2       -7.802857e-01
        73         2       -1.300763e+00
        74         2        1.408869e+00
        75         2       -6.380385e-01
        76         2        4.866542e-01
        77         2        1.611589e-01
        78         2       -7.002567e-01
        79         2       -1.192013e+00
        80         2       -1.086024e+00
        81         2        2.644338e-01
        82         2       -6.259943e-01
        83         2        6.490631e-01
        84         2       -1.277044e+00
        85         2        1.656638e-01
        86         2       -1.227925e+00
        87         2        3.801533e-01
        88         2       -3.704669e+00
        89         2        1.942806e-01
        90         2       -1.297567e+00
        91         2        2.914555e-01
        92         2       -8.112716e-01
        93         2       -4.254439e-02
        94         2       -6.117612e-02
        95         2        5.525976e-01
        96         2        2.735664e-01
        97         2       -2.133587e+00
        98         2       -1.527406e-01
        99         2       -1.082425e+00
       100         2       -4.304448e-01
         1         3       -7.541975e-02
         2         3       -2.812230e-01
         3         3        6.509878e-01
         4         3        1.449608e+00
         5         3        2.760998e-02
         6         3        8.456715e-01
         7         3       -8.386211e-01
         8         3        7.015824e-01
         9         3        5.614351e-01
        10         3        1.258462e+00
        11         3        1.692391e+00
        12         3       -1.233668e+00
        13         3        7.132095e-01
        14         3        9.412112e-01
        15         3       -1.032015e-01
        16         3        1.335722e+00
        17         3       -1.325600e+00
        18         3        6.983213e-01
        19         3       -8.655021e-01
        20         3       -1.282871e-01
        21         3        5.265685e-04
        22         3        6.483742e-01
        23         3        1.907550e+00
        24         3        1.194795e+00
        25         3       -2.805074e-01
        26         3       -8.351473e-01
        27         3       -3.035215e-01
        28         3        2.077454e-01
        29         3       -5.739277e-01
        30         3       -1.130313e+00
        31         3        6.680964e-01
        32         3        3.208857e-01
        33         3       -2.693155e-01
        34         3       -1.247166e+00
        35         3        3.197359e-01
        36         3        5.191464e-01
        37         3       -1.012701e+00
        38         3        3.212613e-01
        39         3       -6.174963e-01
        40         3       -8.725456e-01
        41         3        8.260126e-01
        42         3        1.761090e-01
        43         3       -2.933432e+00
        44         3        1.135705e-01
        45         3        9.474506e-01
        46         3       -1.017382e+00
        47         3       -9.372962e-01
        48         3       -1.190763e-01
        49         3        3.919775e-01
        50         3        2.709450e+00
        51         3        2.180332e-01
        52         3        2.782635e-01
        53         3        7.238392e-01
        54         3        1.602472e-01
        55         3        8.736323e-01
        56         3        9.618307e-02
        57         3       -1.356672e+00
        58         3       -2.476781e-01
        59         3        1.679928e-01
        60         3       -7.109713e-01
        61         3        2.094474e-01
        62         3       -1.651386e+00
        63         3       -6.325169e-01
        64         3        1.366662e-01
        65         3       -5.874105e-01
        66         3       -1.004899e+00
        67         3       -2.016020e+00
        68         3        1.728352e-01
        69         3        4.375737e-01
        70         3        1.253578e+00
        71         3        3.244846e-02
        72         3        1.647516e+00
        73         3       -4.662499e-01
        74         3        5.514106e-01
        75         3        3.170514e-01
        76         3       -5.734509e-03
        77         3        3.958911e-01
        78         3        9.065058e-01
        79         3        1.474142e-01
        80         3        2.394944e-01
        81         3       -2.974090e+00
        82         3       -1.505363e-01
        83         3       -4.040204e-01
        84         3        4.681457e-01
        85         3        7.257147e-01
        86         3       -2.095394e+00
        87         3        1.987029e+00
        88         3       -1.460197e+00
        89         3        2.010250e+00
        90         3        8.845493e-01
        91         3       -1.325164e+00
        92         3       -6.899387e-01
        93         3        8.107631e-01
        94         3        1.915014e+00
        95         3        7.243052e-01
        96         3        1.036335e+00
        97         3       -3.758292e-01
        98         3       -1.065922e+00
        99         3       -3.551284e-01
       100         3       -2.610366e-01
         1         4       -2.292303e-01
         2         4       -1.478713e+00
         3         4       -1.149464e+00
         4         4       -1.092045e+00
         5         4        1.025284e+00
         6         4        1.550060e+00
         7         4        1.643161e-01
         8         4        7.112315e-01
         9         4        8.703781e-02
        10         4        2.828238e-01
        11         4        4.478084e-01
        12         4       -4.577117e-01
        13         4        4.513445e-02
        14         4       -6.744538e-01
        15         4       -1.059548e+00
        16         4        2.694835e-01
        17         4        5.358674e-01
        18         4       -1.411619e+00
        19         4       -4.600270e-01
        20         4       -2.655336e-01
        21         4       -7.798788e-02
        22         4       -4.318636e-01
        23         4       -5.182697e-01
        24         4        6.284414e-01
        25         4        1.376342e-01
        26         4        6.649848e-02
        27         4        1.265478e+00
        28         4       -2.464258e+00
        29         4        1.430364e+00
        30         4       -1.250201e+00
        31         4       -2.401242e+00
        32         4       -9.218044e-02
        33         4       -1.252256e+00
        34         4       -1.371276e+00
        35         4       -1.115229e+00
        36         4       -1.926866e+00
        37         4       -1.929036e-01
        38         4       -5.053809e-01
        39         4       -5.927666e-02
        40         4       -1.541503e-01
        41         4        3.479776e-02
        42         4        1.795710e+00
        43         4        8.651831e-01
        44         4       -7.953100e-01
        45         4       -2.130786e-01
        46         4        8.603501e-02
        47         4       -6.712478e-01
        48         4       -4.149523e-01
        49         4       -8.880476e-01
        50         4        1.068581e+00
        51         4        7.264934e-01
        52         4       -1.110814e+00
        53         4       -1.591078e+00
        54         4       -2.109681e-01
        55         4        2.729986e+00
        56         4       -1.912948e+00
        57         4       -4.827559e-01
        58         4        7.387469e-01
        59         4       -4.350489e-01
        60         4        1.946858e-01
        61         4       -3.439398e-01
        62         4       -1.066315e+00
        63         4        8.601915e-01
        64         4        1.555138e+00
        65         4       -1.418235e+00
        66         4       -1.387290e+00
        67         4        5.523009e-01
        68         4        1.114552e+00
        69         4        1.185840e+00
        70         4       -8.241064e-01
        71         4        7.887459e-01
        72         4        2.043658e+00
        73         4        2.192308e+00
        74         4       -1.456481e+00
        75         4        5.437466e-02
        76         4        1.126439e+00
        77         4       -1.493686e+00
        78         4       -1.761498e+00
        79         4        7.336803e-01
        80         4        5.511902e-01
        81         4        7.683923e-01
        82         4        1.640157e+00
        83         4        3.050271e-01
        84         4       -1.991114e-01
        85         4       -1.570949e-01
        86         4        2.798187e-01
        87         4        5.037500e-01
        88         4       -2.231949e+00
        89         4        1.984609e-01
        90         4       -1.456729e-02
        91         4       -3.452410e-01
        92         4        9.754579e-01
        93         4       -6.911878e-01
        94         4        9.248815e-01
        95         4       -9.802837e-01
        96         4       -7.484228e-01
        97         4       -2.861107e-01
        98         4        1.396317e+00
        99         4        6.734172e-02
       100         4       -6.185695e-01
         1         5        1.553967e+00
         2         5       -1.311731e+00
         3         5        7.228308e-01
         4         5       -1.603770e+00
         5         5        3.899798e-01
         6         5       -9.797409e-01
         7         5       -1.023561e+00
         8         5        2.524268e-01
         9         5        6.510077e-02
        10         5       -5.249879e-01
        11         5        5.165222e-01
        12         5       -1.180976e+00
        13         5       -1.830226e-01
        14         5        5.163026e-01
        15         5        1.509275e+00
        16         5       -2.564868e+00
        17         5       -2.199804e-01
        18         5        3.712538e-01
        19         5        9.334870e-01
        20         5       -2.912296e-01
        21         5       -3.164129e-01
        22         5       -9.900915e-01
        23         5       -1.516343e+00
        24         5        1.049578e+00
        25         5       -4.277286e-01
        26         5       -6.021067e-01
        27         5       -3.246856e-01
        28         5       -1.274627e+00
        29         5       -2.258346e-01
        30         5        3.415342e-02
        31         5        4.332794e-02
        32         5        2.848204e-02
        33         5        1.692028e+00
        34         5        2.356980e+00
        35         5        2.227325e-01
        36         5       -8.149703e-01
        37         5        5.508113e-01
        38         5       -9.898481e-01
        39         5        2.127801e+00
        40         5       -6.075087e-01
        41         5        1.132706e+00
        42         5        7.805915e-01
        43         5        7.764120e-01
        44         5       -4.557912e-01
        45         5       -3.393117e-01
        46         5       -3.444610e-01
        47         5        3.658975e-01
        48         5       -1.718167e+00
        49         5        1.816723e+00
        50         5       -8.419937e-01
        51         5       -3.515820e-02
        52         5       -4.796256e-01
        53         5       -1.294148e+00
        54         5        3.823829e-01
        55         5       -2.870700e-01
        56         5        2.505267e+00
        57         5       -1.182954e+00
        58         5        1.915439e+00
        59         5       -1.119486e+00
        60         5        4.892169e-01
        61         5       -8.393693e-02
        62         5        2.249729e+00
        63         5       -1.561083e+00
        64         5       -2.476184e-01
        65         5        3.178777e-01
        66         5       -4.628468e-01
        67         5        5.322298e-01
        68         5       -5.150656e-01
        69         5        7.757085e-01
        70         5        1.290063e+00
        71         5       -1.063549e+00
        72         5       -1.101772e-01
        73         5        9.446844e-01
        74         5        9.427162e-02
        75         5       -1.032105e+00
        76         5       -9.636891e-01
        77         5       -1.270292e+00
        78         5        3.743587e-01
        79         5        1.747520e+00
        80         5       -4.337824e-01
        81         5       -6.806993e-01
        82         5        1.001702e+00
        83         5        1.024160e+00
        84         5       -1.061532e-01
        85         5        1.940129e+00
        86         5       -9.492540e-01
        87         5        2.074157e+00
        88         5       -8.087677e-01
        89         5       -6.845181e-01
        90         5       -1.645699e+00
        91         5        1.787460e+00
        92         5        3.075123e-01
        93         5       -4.331530e-01
        94         5        1.818978e+00
        95         5        3.295583e-01
        96         5       -1.081940e-01
        97         5        4.206343e-01
        98         5        1.746816e+00
        99         5       -8.817335e-01
       100         5        4.348423e-01
;

param theta:=
    1        5.498437e-01
    2        5.847510e-01
    3       -8.591360e-01
    4       -8.356863e-01
    5        6.161113e-01
;
param X_true:=
    1        2.476596e+00
    2        1.445827e+00
    3        1.310268e+00
    4       -1.282620e+00
    5       -8.575072e-01
    6       -2.991320e+00
    7       -2.662148e-01
    8       -2.600197e+00
    9        1.926906e-02
   10       -7.707428e-01
   11       -1.249684e+00
   12        1.491830e-01
   13       -9.202469e-01
   14        2.447135e-01
   15        2.689146e+00
   16       -4.912171e+00
   17        4.854322e-01
   18        2.548839e+00
   19        1.724246e+00
   20       -1.216734e-01
   21       -6.026213e-01
   22        5.229388e-01
   23       -1.725907e+00
   24       -1.061012e+00
   25        8.806076e-01
   26       -5.715969e-02
   27       -1.294526e+00
   28        2.849553e+00
   29       -6.400589e-01
   30        2.101723e+00
   31        4.945517e-01
   32       -4.306972e-01
   33        2.280871e+00
   34        3.184924e+00
   35        1.377100e+00
   36       -6.964388e-01
   37        1.439182e+00
   38        6.144117e-01
   39        2.620842e+00
   40        7.957797e-01
   41       -7.007812e-02
   42       -2.253258e+00
   43        2.191867e+00
   44        4.496007e-01
   45       -1.787654e+00
   46        9.108526e-01
   47        5.997404e-01
   48        9.063121e-01
   49        1.179324e+00
   50       -4.952711e+00
   51       -1.818496e-01
   52        1.025287e+00
   53        4.010608e-01
   54       -1.029100e+00
   55       -3.137466e+00
   56        1.977094e+00
   57       -2.999313e-01
   58       -1.705386e-01
   59       -7.470526e-01
   60        7.174988e-01
   61        7.899488e-01
   62        2.247825e+00
   63       -1.537215e+00
   64       -2.964807e+00
   65        2.923548e+00
   66        9.028798e-01
   67        1.744451e+00
   68       -6.903584e-01
   69       -7.758750e-01
   70        2.473387e-01
   71       -6.053015e-01
   72       -3.963655e+00
   73       -4.029985e-01
   74        2.119153e+00
   75       -8.245537e-01
   76       -1.921225e+00
   77       -2.501991e-01
   78        9.452426e-01
   79        1.892863e-01
   80       -1.151683e+00
   81        9.104648e-01
   82       -7.663601e-01
   83        2.214588e+00
   84       -1.421794e+00
   85        8.856645e-01
   86       -2.661537e-01
   87       -9.734403e-01
   88        2.032492e-02
   89       -2.030156e+00
   90       -2.473771e+00
   91        3.038365e+00
   92       -7.545346e-01
   93       -1.582129e+00
   94       -1.866206e+00
   95        1.394494e+00
   96       -8.675832e-01
   97       -1.266710e+00
   98       -8.734588e-02
   99       -4.321393e-01
  100        9.863316e-01
;
param X:=
    1       -6.517820e-01
    2        2.558139e-01
    3        1.310268e+00
    4       -1.282620e+00
    5       -4.191693e-01
    6        1.013695e-01
    7        9.024208e-01
    8        6.170518e-01
    9        1.926906e-02
   10        4.875869e-01
   11       -1.249684e+00
   12        9.441128e-01
   13       -5.771229e-01
   14       -2.875435e-01
   15        2.689146e+00
   16        7.794153e-01
   17       -1.069398e+00
   18       -8.309412e-01
   19       -2.034570e-01
   20       -1.008679e+00
   21       -1.795926e+00
   22        4.094573e-02
   23        1.912365e+00
   24       -6.247598e-01
   25        1.265133e+00
   26       -6.054061e-01
   27       -1.130837e+00
   28       -8.523694e-01
   29       -3.265286e-01
   30        2.101723e+00
   31        4.696869e-01
   32       -4.306972e-01
   33       -8.866339e-01
   34        7.322835e-02
   35        7.235058e-01
   36       -6.964388e-01
   37        1.439182e+00
   38       -1.094902e+00
   39       -1.134536e-01
   40        4.953318e-01
   41        2.822404e-01
   42        1.154251e+00
   43       -7.506632e-01
   44       -8.639136e-01
   45       -5.901023e-02
   46        1.261274e-01
   47        1.907047e+00
   48        9.063121e-01
   49       -6.982143e-02
   50       -4.952711e+00
   51       -1.405442e-01
   52        1.153841e+00
   53        4.010608e-01
   54       -1.029100e+00
   55        1.149002e+00
   56        3.235059e-01
   57        1.554365e-01
   58       -1.705386e-01
   59        1.374943e-01
   60       -5.983968e-01
   61        7.899488e-01
   62        2.247825e+00
   63        1.347106e+00
   64       -2.964807e+00
   65        2.923548e+00
   66       -6.747982e-01
   67        1.082294e+00
   68       -4.935369e-02
   69        1.359853e+00
   70        1.807815e-01
   71       -1.382840e+00
   72       -8.028459e-02
   73       -1.754140e-01
   74        7.923868e-01
   75        1.610130e+00
   76        2.697996e+00
   77       -8.316360e-01
   78       -1.144592e+00
   79        3.485699e-01
   80       -1.692608e+00
   81        9.104648e-01
   82       -1.481980e-01
   83        2.214588e+00
   84       -1.421794e+00
   85        6.211949e-01
   86       -1.218779e+00
   87       -9.734403e-01
   88       -5.798935e-01
   89       -2.030156e+00
   90        1.597242e-01
   91        3.038365e+00
   92       -7.545346e-01
   93       -1.678310e+00
   94       -6.937233e-02
   95       -1.782614e-01
   96        2.122448e+00
   97       -1.157823e+00
   98       -1.491812e-01
   99       -4.321393e-01
  100        9.566807e-01
;
param outliervec:=
    1    1
    2    1
    3    0
    4    0
    5    1
    6    1
    7    1
    8    1
    9    0
   10    1
   11    0
   12    1
   13    1
   14    1
   15    0
   16    1
   17    1
   18    1
   19    1
   20    1
   21    1
   22    1
   23    1
   24    1
   25    1
   26    1
   27    1
   28    1
   29    1
   30    0
   31    1
   32    0
   33    1
   34    1
   35    1
   36    0
   37    0
   38    1
   39    1
   40    1
   41    1
   42    1
   43    1
   44    1
   45    1
   46    1
   47    1
   48    0
   49    1
   50    0
   51    1
   52    1
   53    0
   54    0
   55    1
   56    1
   57    1
   58    0
   59    1
   60    1
   61    0
   62    0
   63    1
   64    0
   65    0
   66    1
   67    1
   68    1
   69    1
   70    1
   71    1
   72    1
   73    1
   74    1
   75    1
   76    1
   77    1
   78    1
   79    1
   80    1
   81    0
   82    1
   83    0
   84    0
   85    1
   86    1
   87    0
   88    1
   89    0
   90    1
   91    0
   92    0
   93    1
   94    1
   95    1
   96    1
   97    1
   98    1
   99    0
  100    1
;